Solving original (integer) problem with strategy gdp.hull...
--- Job model.gms Start 02/14/26 17:12:14 52.2.0 d8e408be LEX-LEG x86 64bit/Linux
--- Applying:
    /package/gams/52.2/gmsprmun.txt
--- GAMS Parameters defined
    Input /local/scratch/a/sgusev/repos/k_means/data/gams_gurobi_gdp.hull/no_mode/2026-02-14_17-12-13/original/model.gms
    Output /local/scratch/a/sgusev/repos/k_means/data/gams_gurobi_gdp.hull/no_mode/2026-02-14_17-12-13/original/output.lst
    ScrDir /local/scratch/a/sgusev/repos/k_means/data/gams_gurobi_gdp.hull/no_mode/2026-02-14_17-12-13/original/225a/
    SysDir /package/gams/52.2/
    CurDir /local/scratch/a/sgusev/repos/k_means/data/gams_gurobi_gdp.hull/no_mode/2026-02-14_17-12-13/original/
    LogOption 3
    AppendLog 1
Licensee: David Bernal / SECQUOIA Research Group         G251008+0003Ac-GEN
          Purdue University, Davidson School of Chemical EngineeringDCE4838
          225a/gamslice.dat
          5a82958a-fbca-4a23
          node:66820903 mem:995 cores:48 ipport:60867 v:2                  
          Evaluation license: Not for commercial or production use
          The time-limited license stops working on : Jun 30, 2027
System information: 48 physical cores and 995 Gb physical memory detected
GAMS 52.2.0   Copyright (C) 1987-2025 GAMS Development. All rights reserved
--- Starting compilation
--- model.gms(1283) 2 Mb
--- $echo File /local/scratch/a/sgusev/repos/k_means/data/gams_gurobi_gdp.hull/no_mode/2026-02-14_17-12-13/original/gurobi.opt
--- model.gms(1929) 2 Mb
--- Starting execution: elapsed 0:00:00.010
--- model.gms(1292) 3 Mb
--- Generating MINLP model GAMS_MODEL
--- model.gms(1296) 5 Mb
---   383 rows  197 columns  925 non-zeroes
---   930 nl-code  120 nl-non-zeroes
---   30 discrete-columns
--- Range statistics (absolute non-zero finite values)
--- RHS       [min, max] : [ 2.275E-05, 1.000E+00] - Zero values observed as well
--- Bound     [min, max] : [ 1.000E+00, 4.000E+01] - Zero values observed as well
--- Matrix    [min, max] : [ 2.275E-01, 4.000E+01]
--- model.gms(1296) 3 Mb
--- Executing GUROBI (Solvelink=5): elapsed 0:00:00.014
Reading parameter(s) from "/local/scratch/a/sgusev/repos/k_means/data/gams_gurobi_gdp.hull/no_mode/2026-02-14_17-12-13/original/gurobi.opt"
>>  NonConvex 2
>>  Threads 1
>>  MIPGap 1e-06
>>  MIPGapAbs 1e-10
>>  FeasibilityTol 1e-06
>>  OptimalityTol 1e-06
>>  IntFeasTol 1e-05
Finished reading from "/local/scratch/a/sgusev/repos/k_means/data/gams_gurobi_gdp.hull/no_mode/2026-02-14_17-12-13/original/gurobi.opt"

... GRB_LICENSE_FILE = /local/scratch/a/sgusev/gurobi.lic

    Gurobi           52.2.0 d8e408be Dec 8, 2025           LEG x86 64bit/Linux    

... GAMS/Gurobi Link license.
... GMO Q Extraction (ThreePass): 0.00s

    Gurobi Optimizer version 13.0.0 build v13.0.0rc1 (linux64 - "Oracle Linux Server 9.7")
    
    CPU model: AMD EPYC 7643 48-Core Processor, instruction set [SSE2|AVX|AVX2]
    Thread count: 48 physical cores, 96 logical processors, using up to 1 threads
    
    Non-default parameters:
    TimeLimit  300
    MIPGap  1e-06
    LogToConsole  0
    NonConvex  2
    Threads  1
    
    Optimize a model with 382 rows, 226 columns and 824 nonzeros (Min)
    Model fingerprint: 0x65d366f3
    Model has 10 linear objective coefficients
    Model has 30 general nonlinear constraints (180 nonlinear terms)
    Variable types: 196 continuous, 30 integer (0 binary)
    Coefficient statistics:
      Matrix range     [1e+00, 4e+01]
      Objective range  [1e+00, 1e+00]
      Bounds range     [1e+00, 4e+01]
      RHS range        [1e+00, 1e+00]
      NLCon coe range  [2e-05, 1e+00]
    Presolve model has 30 nlconstr
    Added 390 variables to disaggregate expressions
    Presolve removed 90 rows and 70 columns
    Presolve time: 0.00s
    Presolved: 1192 rows, 547 columns, 3034 nonzeros
    Presolved model has 180 bilinear constraint(s)
    
    Solving non-convex MIQCP to global optimality
    
    Variable types: 517 continuous, 30 integer (30 binary)
    Found heuristic solution: objective 8.1624711
    
    Root relaxation: objective 0.000000e+00, 175 iterations, 0.00 seconds (0.00 work units)
    
        Nodes    |    Current Node    |     Objective Bounds      |     Work
     Expl Unexpl |  Obj  Depth IntInf | Incumbent    BestBd   Gap | It/Node Time
    
         0     0    0.00000    0   90    8.16247    0.00000   100%     -    0s
         0     0    0.00000    0   90    8.16247    0.00000   100%     -    0s
         0     0    0.00000    0  125    8.16247    0.00000   100%     -    0s
         0     0    0.00000    0  104    8.16247    0.00000   100%     -    0s
         0     0    0.00000    0  104    8.16247    0.00000   100%     -    0s
         0     0    0.00000    0   43    8.16247    0.00000   100%     -    0s
         0     0    0.00000    0   83    8.16247    0.00000   100%     -    0s
         0     0    0.00000    0  106    8.16247    0.00000   100%     -    0s
         0     0    0.00000    0  106    8.16247    0.00000   100%     -    0s
         0     0    0.00000    0   50    8.16247    0.00000   100%     -    0s
         0     0    0.00000    0   50    8.16247    0.00000   100%     -    0s
         0     0    0.00000    0   50    8.16247    0.00000   100%     -    0s
    H    0     0                       5.6975286    0.00000   100%     -    0s
    H    0     0                       4.6180940    0.00000   100%     -    0s
         0     2    0.00000    0   50    4.61809    0.00000   100%     -    0s
    H    4     4                       2.9557454    0.00000   100%   9.5    0s
    H  101    82                       2.8368613    0.00000   100%   7.6    0s
    H  116    57                       2.2674088    0.00000   100%   7.5    0s
    H  961   191                       1.8405377    0.49332  73.2%  12.3    0s
    H 1029   183                       1.7800648    0.55738  68.7%  12.2    1s
    * 1902   110              64       1.7800609    1.71919  3.42%  10.1    1s
    * 1903   109              64       1.7800582    1.71919  3.42%  10.1    1s
    
    Cutting planes:
      Implied bound: 116
      MIR: 21
      Flow cover: 5
      RLT: 13
      Relax-and-lift: 20
    
    Explored 6173 nodes (30033 simplex iterations) in 3.94 seconds (2.54 work units)
    Thread count was 1 (of 96 available processors)
    
    Solution count 10: 1.78006 1.78006 1.78006 ... 5.69753
    
    Optimal solution found (tolerance 1.00e-06)
    Warning: max constraint violation (1.7584e-06) exceeds tolerance
    Warning: max general constraint violation (1.7584e-06) exceeds tolerance
    Best objective 1.780058199548e+00, best bound 1.780058098152e+00, gap 0.0000%
    
    User-callback calls 6190, time in user-callback 0.00 sec

... Solving fixed model...

    Gurobi Optimizer version 13.0.0 build v13.0.0rc1 (linux64 - "Oracle Linux Server 9.7")
    
    CPU model: AMD EPYC 7643 48-Core Processor, instruction set [SSE2|AVX|AVX2]
    Thread count: 48 physical cores, 96 logical processors, using up to 1 threads
    
    Non-default parameters:
    TimeLimit  300
    MIPGap  1e-06
    LogToConsole  0
    NonConvex  2
    Threads  1
    
    Optimize a model with 382 rows, 226 columns and 824 nonzeros (Min)
    Model fingerprint: 0x94f27e47
    Model has 10 linear objective coefficients
    Coefficient statistics:
      Matrix range     [1e+00, 4e+01]
      Objective range  [1e+00, 1e+00]
      Bounds range     [2e-02, 4e+01]
      RHS range        [1e+00, 1e+00]
    Presolve removed 382 rows and 226 columns
    Presolve time: 0.00s
    Presolve: All rows and columns removed
    Iteration    Objective       Primal Inf.    Dual Inf.      Time
           0    1.7800582e+00   0.000000e+00   0.000000e+00      0s
    
    Solved in 0 iterations and 0.00 seconds (0.00 work units)
    Optimal objective  1.780058200e+00
    
    User-callback calls 0, time in user-callback 0.00 sec

--- Reading solution for model GAMS_MODEL
***
*** Solver did not provide marginals for model GAMS_MODEL
***
--- Executing after solve: elapsed 0:00:04.002
--- model.gms(1299) 3 Mb
--- model.gms(1929) 5 Mb
--- Putfile results /local/scratch/a/sgusev/repos/k_means/data/gams_gurobi_gdp.hull/no_mode/2026-02-14_17-12-13/original/results.dat
--- Putfile statresults /local/scratch/a/sgusev/repos/k_means/data/gams_gurobi_gdp.hull/no_mode/2026-02-14_17-12-13/original/resultsstat.dat
*** Status: Normal completion
--- Job model.gms Stop 02/14/26 17:12:18 elapsed 0:00:04.004
Original problem solved. Time taken: 4.584857940673828 seconds
Original objective value: 1.78005819954842
